NAME: generated_7_sym_1_50_UniformDistrib_sparse.tsp
TYPE: TSP
COMMENT: Test case generated with custom generator!
DIMENSION: 7
EDGE_WEIGHT_TYPE: EXPLICIT
EDGE_WEIGHT_FORMAT: FULL_MATRIX
DISPLAY_DATA_TYPE: TWOD_DISPLAY
EDGE_WEIGHT_SECTION
0 99999 42 1 23 99999 99999 
99999 0 19 7 50 99999 99999 
42 19 0 20 28 39 8 
1 7 20 0 5 11 99999 
23 50 28 5 0 99999 99999 
99999 99999 39 11 99999 0 48 
99999 99999 8 99999 99999 48 0 
